Instances/ASP/Medium/medium7.lp
#const m=7.
#const n=7.
#const maxtime=10.
box(1,5,1).
box(2,2,2).
drawer(4,2).
drawer(2,3).
