Instances/MiniZinc/Medium/medium7.dzn
m=7;
n=7;
maxtime=10;
boxNumber = 2;
drawerNumber = 2;
constraint boxes[1, 0, 0] = 5 /\ boxes[1, 0, 1] = 1;
constraint boxes[2, 0, 0] = 2 /\ boxes[2, 0, 1] = 2;
drawers = array2d(1..drawerNumber, 0..1, [|4,2|2,3|]);
